%%
% Autogenerated by /opt/prj/battleships-ai/src/server/solver.py, instance 0 6x6 [1] #3 <p1s>
% Source: https://www.puzzle-battleships.com/?size=0
%%

size = 6;
hints_num = 1;
hints = [| 3, 5 |];
ships_num = 6;

constr_rows = [2, 1, 2, 0, 3, 2];
constr_cols = [0, 5, 0, 3, 1, 1];

given_ships = [|
<>, <>, <>, <>, 1, |
<>, <>, <>, <>, 1, |
<>, <>, <>, <>, 1, |
<>, <>, <>, <>, 2, |
<>, <>, <>, <>, 2, |
<>, <>, <>, <>, 3  |];

